c "256508.clq"
p edge 150 584
e 1 5
e 1 6
e 1 7
e 1 10
e 1 21
e 1 30
e 1 37
e 1 67
e 1 73
e 1 119
e 1 129
e 1 136
e 1 148
e 1 150
e 2 5
e 2 6
e 2 8
e 2 9
e 2 10
e 2 11
e 2 13
e 2 14
e 2 15
e 2 16
e 2 17
e 2 18
e 2 23
e 2 27
e 2 29
e 2 36
e 2 38
e 2 50
e 2 52
e 2 56
e 2 57
e 2 58
e 2 59
e 2 64
e 2 76
e 2 78
e 2 89
e 2 92
e 2 100
e 2 102
e 2 120
e 2 126
e 2 128
e 2 131
e 2 139
e 2 147
e 3 5
e 3 6
e 3 7
e 3 9
e 3 10
e 3 14
e 3 21
e 3 24
e 3 33
e 3 34
e 3 42
e 3 54
e 3 63
e 3 64
e 3 71
e 3 75
e 3 78
e 3 92
e 3 96
e 3 97
e 4 5
e 5 6
e 5 7
e 5 8
e 5 12
e 5 13
e 5 14
e 5 15
e 5 17
e 5 20
e 5 23
e 5 39
e 5 41
e 5 46
e 5 47
e 5 53
e 5 54
e 5 56
e 5 57
e 5 63
e 5 69
e 5 75
e 5 88
e 5 90
e 5 98
e 5 123
e 5 126
e 5 135
e 5 136
e 5 142
e 6 7
e 6 8
e 6 9
e 6 12
e 6 16
e 6 22
e 6 27
e 6 28
e 6 30
e 6 31
e 6 32
e 6 33
e 6 38
e 6 39
e 6 51
e 6 62
e 6 69
e 6 71
e 6 73
e 6 75
e 6 81
e 6 103
e 6 112
e 6 115
e 6 117
e 6 120
e 6 127
e 6 133
e 6 137
e 6 139
e 7 8
e 7 11
e 7 12
e 7 13
e 7 17
e 7 22
e 7 24
e 7 28
e 7 33
e 7 46
e 7 54
e 7 94
e 7 118
e 7 137
e 8 9
e 8 10
e 8 11
e 8 15
e 8 19
e 8 26
e 8 29
e 8 30
e 8 35
e 8 36
e 8 37
e 8 41
e 8 44
e 8 49
e 8 52
e 8 61
e 8 68
e 8 72
e 8 73
e 8 82
e 8 84
e 8 85
e 8 93
e 8 97
e 8 102
e 8 112
e 8 118
e 8 122
e 8 123
e 8 125
e 8 128
e 8 134
e 8 139
e 9 12
e 9 17
e 9 19
e 9 23
e 9 26
e 9 36
e 9 43
e 9 49
e 9 65
e 9 77
e 9 87
e 9 110
e 9 131
e 9 132
e 10 11
e 10 13
e 10 14
e 10 20
e 10 27
e 10 45
e 10 55
e 10 57
e 10 71
e 10 104
e 10 107
e 10 110
e 10 121
e 10 125
e 10 129
e 10 146
e 11 16
e 11 25
e 11 28
e 11 53
e 11 86
e 11 91
e 11 95
e 11 101
e 11 109
e 11 115
e 12 16
e 12 19
e 12 21
e 12 24
e 12 25
e 12 27
e 12 28
e 12 31
e 12 38
e 12 39
e 12 45
e 12 55
e 12 61
e 12 64
e 12 74
e 12 77
e 12 82
e 12 83
e 12 113
e 12 125
e 12 129
e 12 138
e 12 141
e 13 18
e 13 21
e 13 25
e 13 26
e 13 49
e 13 56
e 13 93
e 13 121
e 13 132
e 14 15
e 14 18
e 14 20
e 14 26
e 14 35
e 14 50
e 14 51
e 14 63
e 14 65
e 14 66
e 14 68
e 14 79
e 14 94
e 14 96
e 14 102
e 14 107
e 14 110
e 14 131
e 14 134
e 14 145
e 14 149
e 15 35
e 15 40
e 15 46
e 15 79
e 15 89
e 15 96
e 16 22
e 16 24
e 16 51
e 16 103
e 16 120
e 16 143
e 17 18
e 17 19
e 17 20
e 17 25
e 17 58
e 17 66
e 17 90
e 17 104
e 17 146
e 18 23
e 18 32
e 18 60
e 18 74
e 18 81
e 19 22
e 19 40
e 19 44
e 19 48
e 19 68
e 19 119
e 19 150
e 20 31
e 20 34
e 20 37
e 20 45
e 20 52
e 20 60
e 20 74
e 20 80
e 20 86
e 20 97
e 20 118
e 20 126
e 20 147
e 21 29
e 21 34
e 21 55
e 21 71
e 21 75
e 21 87
e 21 88
e 21 115
e 22 31
e 22 62
e 22 91
e 22 95
e 22 110
e 23 44
e 23 48
e 23 63
e 23 65
e 23 69
e 23 83
e 23 96
e 23 103
e 23 119
e 23 149
e 24 34
e 24 37
e 24 43
e 24 47
e 24 48
e 24 77
e 24 93
e 24 123
e 24 128
e 25 33
e 25 57
e 25 72
e 25 85
e 25 88
e 25 102
e 25 105
e 25 145
e 25 150
e 26 32
e 26 42
e 26 50
e 26 55
e 26 67
e 26 83
e 26 84
e 26 89
e 26 94
e 26 100
e 26 103
e 26 106
e 26 119
e 26 139
e 27 30
e 27 44
e 27 117
e 28 29
e 28 36
e 28 40
e 28 43
e 28 58
e 28 60
e 28 70
e 28 73
e 28 76
e 28 105
e 28 127
e 29 32
e 29 41
e 29 50
e 29 53
e 29 61
e 29 140
e 29 146
e 30 42
e 30 47
e 30 80
e 30 98
e 30 112
e 30 121
e 30 133
e 30 142
e 31 35
e 31 43
e 31 118
e 32 38
e 32 39
e 32 40
e 32 48
e 32 67
e 32 98
e 32 122
e 33 49
e 33 66
e 33 69
e 33 94
e 33 113
e 34 59
e 34 116
e 34 117
e 35 42
e 35 52
e 35 56
e 35 70
e 35 82
e 35 85
e 35 105
e 35 146
e 36 47
e 36 114
e 36 124
e 37 59
e 37 67
e 37 70
e 37 99
e 37 113
e 38 66
e 38 109
e 38 111
e 39 41
e 39 45
e 39 72
e 39 76
e 39 81
e 39 87
e 39 90
e 39 108
e 40 46
e 40 87
e 40 101
e 40 104
e 40 106
e 42 116
e 44 129
e 45 54
e 45 60
e 45 104
e 45 106
e 45 141
e 46 108
e 47 142
e 47 149
e 48 114
e 48 116
e 49 90
e 49 98
e 49 135
e 49 143
e 50 51
e 50 53
e 50 72
e 50 85
e 50 91
e 50 99
e 50 148
e 53 61
e 53 132
e 54 59
e 54 62
e 54 64
e 54 74
e 54 80
e 54 101
e 54 105
e 54 112
e 54 122
e 54 130
e 54 138
e 54 143
e 55 58
e 55 92
e 56 130
e 56 145
e 57 62
e 57 70
e 57 126
e 58 65
e 58 147
e 59 78
e 59 117
e 60 145
e 61 77
e 61 81
e 61 111
e 61 113
e 61 140
e 62 84
e 62 124
e 62 127
e 64 84
e 64 89
e 64 100
e 64 106
e 65 80
e 66 68
e 67 114
e 67 121
e 68 147
e 68 148
e 69 79
e 69 141
e 70 108
e 71 76
e 71 115
e 71 127
e 72 78
e 72 135
e 72 142
e 73 86
e 73 92
e 73 134
e 73 144
e 74 136
e 75 82
e 76 79
e 76 86
e 76 95
e 76 97
e 76 109
e 77 114
e 77 133
e 78 99
e 79 88
e 79 91
e 79 144
e 80 138
e 81 93
e 81 108
e 81 131
e 82 83
e 83 122
e 84 111
e 87 109
e 89 99
e 89 107
e 89 137
e 90 111
e 90 120
e 90 124
e 91 95
e 91 130
e 92 133
e 93 140
e 94 100
e 95 141
e 95 144
e 99 123
e 100 101
e 101 138
e 102 116
e 104 107
e 105 136
e 105 140
e 106 125
e 109 132
e 112 124
e 116 128
e 116 137
e 117 149
e 121 130
e 125 134
e 127 135
e 129 143
e 136 144
e 139 150
e 140 148
